p cnf 875 2090
1 2 3  0
-4 1 0
4 -1 0
-5 4 2 0
5 -4 0
5 -2 0
-4 -2 0
-5 -3 0
6 7 8  0
-9 6 0
9 -6 0
-10 9 7 0
10 -9 0
10 -7 0
-9 -7 0
-10 -8 0
11 12 13  0
-14 11 0
14 -11 0
-15 14 12 0
15 -14 0
15 -12 0
-14 -12 0
-15 -13 0
16 17 18  0
-19 16 0
19 -16 0
-20 19 17 0
20 -19 0
20 -17 0
-19 -17 0
-20 -18 0
21 22 23  0
-24 21 0
24 -21 0
-25 24 22 0
25 -24 0
25 -22 0
-24 -22 0
-25 -23 0
26 27 28  0
-29 26 0
29 -26 0
-30 29 27 0
30 -29 0
30 -27 0
-29 -27 0
-30 -28 0
31 32 33  0
-34 31 0
34 -31 0
-35 34 32 0
35 -34 0
35 -32 0
-34 -32 0
-35 -33 0
36 37 38  0
-39 36 0
39 -36 0
-40 39 37 0
40 -39 0
40 -37 0
-39 -37 0
-40 -38 0
41 42 43  0
-44 41 0
44 -41 0
-45 44 42 0
45 -44 0
45 -42 0
-44 -42 0
-45 -43 0
46 47 48  0
-49 46 0
49 -46 0
-50 49 47 0
50 -49 0
50 -47 0
-49 -47 0
-50 -48 0
51 52 53  0
-54 51 0
54 -51 0
-55 54 52 0
55 -54 0
55 -52 0
-54 -52 0
-55 -53 0
56 57 58  0
-59 56 0
59 -56 0
-60 59 57 0
60 -59 0
60 -57 0
-59 -57 0
-60 -58 0
61 62 63  0
-64 61 0
64 -61 0
-65 64 62 0
65 -64 0
65 -62 0
-64 -62 0
-65 -63 0
66 67 68  0
-69 66 0
69 -66 0
-70 69 67 0
70 -69 0
70 -67 0
-69 -67 0
-70 -68 0
71 72 73  0
-74 71 0
74 -71 0
-75 74 72 0
75 -74 0
75 -72 0
-74 -72 0
-75 -73 0
76 77 78  0
-79 76 0
79 -76 0
-80 79 77 0
80 -79 0
80 -77 0
-79 -77 0
-80 -78 0
81 82 83  0
-84 81 0
84 -81 0
-85 84 82 0
85 -84 0
85 -82 0
-84 -82 0
-85 -83 0
86 87 88  0
-89 86 0
89 -86 0
-90 89 87 0
90 -89 0
90 -87 0
-89 -87 0
-90 -88 0
91 92 93  0
-94 91 0
94 -91 0
-95 94 92 0
95 -94 0
95 -92 0
-94 -92 0
-95 -93 0
96 97 98  0
-99 96 0
99 -96 0
-100 99 97 0
100 -99 0
100 -97 0
-99 -97 0
-100 -98 0
101 102 103  0
-104 101 0
104 -101 0
-105 104 102 0
105 -104 0
105 -102 0
-104 -102 0
-105 -103 0
106 107 108  0
-109 106 0
109 -106 0
-110 109 107 0
110 -109 0
110 -107 0
-109 -107 0
-110 -108 0
111 112 113  0
-114 111 0
114 -111 0
-115 114 112 0
115 -114 0
115 -112 0
-114 -112 0
-115 -113 0
116 117 118  0
-119 116 0
119 -116 0
-120 119 117 0
120 -119 0
120 -117 0
-119 -117 0
-120 -118 0
121 122 123  0
-124 121 0
124 -121 0
-125 124 122 0
125 -124 0
125 -122 0
-124 -122 0
-125 -123 0
126 127 128  0
-129 126 0
129 -126 0
-130 129 127 0
130 -129 0
130 -127 0
-129 -127 0
-130 -128 0
131 132 133  0
-134 131 0
134 -131 0
-135 134 132 0
135 -134 0
135 -132 0
-134 -132 0
-135 -133 0
136 137 138  0
-139 136 0
139 -136 0
-140 139 137 0
140 -139 0
140 -137 0
-139 -137 0
-140 -138 0
141 142 143  0
-144 141 0
144 -141 0
-145 144 142 0
145 -144 0
145 -142 0
-144 -142 0
-145 -143 0
146 147 148  0
-149 146 0
149 -146 0
-150 149 147 0
150 -149 0
150 -147 0
-149 -147 0
-150 -148 0
151 152 153  0
-154 151 0
154 -151 0
-155 154 152 0
155 -154 0
155 -152 0
-154 -152 0
-155 -153 0
156 157 158  0
-159 156 0
159 -156 0
-160 159 157 0
160 -159 0
160 -157 0
-159 -157 0
-160 -158 0
161 162 163  0
-164 161 0
164 -161 0
-165 164 162 0
165 -164 0
165 -162 0
-164 -162 0
-165 -163 0
166 167 168  0
-169 166 0
169 -166 0
-170 169 167 0
170 -169 0
170 -167 0
-169 -167 0
-170 -168 0
171 172 173  0
-174 171 0
174 -171 0
-175 174 172 0
175 -174 0
175 -172 0
-174 -172 0
-175 -173 0
176 177 178  0
-179 176 0
179 -176 0
-180 179 177 0
180 -179 0
180 -177 0
-179 -177 0
-180 -178 0
181 182 183  0
-184 181 0
184 -181 0
-185 184 182 0
185 -184 0
185 -182 0
-184 -182 0
-185 -183 0
186 187 188  0
-189 186 0
189 -186 0
-190 189 187 0
190 -189 0
190 -187 0
-189 -187 0
-190 -188 0
191 192 193  0
-194 191 0
194 -191 0
-195 194 192 0
195 -194 0
195 -192 0
-194 -192 0
-195 -193 0
196 197 198  0
-199 196 0
199 -196 0
-200 199 197 0
200 -199 0
200 -197 0
-199 -197 0
-200 -198 0
201 202 203  0
-204 201 0
204 -201 0
-205 204 202 0
205 -204 0
205 -202 0
-204 -202 0
-205 -203 0
206 207 208  0
-209 206 0
209 -206 0
-210 209 207 0
210 -209 0
210 -207 0
-209 -207 0
-210 -208 0
211 212 213  0
-214 211 0
214 -211 0
-215 214 212 0
215 -214 0
215 -212 0
-214 -212 0
-215 -213 0
216 217 218  0
-219 216 0
219 -216 0
-220 219 217 0
220 -219 0
220 -217 0
-219 -217 0
-220 -218 0
221 222 223  0
-224 221 0
224 -221 0
-225 224 222 0
225 -224 0
225 -222 0
-224 -222 0
-225 -223 0
226 227 228  0
-229 226 0
229 -226 0
-230 229 227 0
230 -229 0
230 -227 0
-229 -227 0
-230 -228 0
231 232 233  0
-234 231 0
234 -231 0
-235 234 232 0
235 -234 0
235 -232 0
-234 -232 0
-235 -233 0
236 237 238  0
-239 236 0
239 -236 0
-240 239 237 0
240 -239 0
240 -237 0
-239 -237 0
-240 -238 0
241 242 243  0
-244 241 0
244 -241 0
-245 244 242 0
245 -244 0
245 -242 0
-244 -242 0
-245 -243 0
246 247 248  0
-249 246 0
249 -246 0
-250 249 247 0
250 -249 0
250 -247 0
-249 -247 0
-250 -248 0
251 252 253  0
-254 251 0
254 -251 0
-255 254 252 0
255 -254 0
255 -252 0
-254 -252 0
-255 -253 0
256 257 258  0
-259 256 0
259 -256 0
-260 259 257 0
260 -259 0
260 -257 0
-259 -257 0
-260 -258 0
261 262 263  0
-264 261 0
264 -261 0
-265 264 262 0
265 -264 0
265 -262 0
-264 -262 0
-265 -263 0
266 267 268  0
-269 266 0
269 -266 0
-270 269 267 0
270 -269 0
270 -267 0
-269 -267 0
-270 -268 0
271 272 273  0
-274 271 0
274 -271 0
-275 274 272 0
275 -274 0
275 -272 0
-274 -272 0
-275 -273 0
276 277 278  0
-279 276 0
279 -276 0
-280 279 277 0
280 -279 0
280 -277 0
-279 -277 0
-280 -278 0
281 282 283  0
-284 281 0
284 -281 0
-285 284 282 0
285 -284 0
285 -282 0
-284 -282 0
-285 -283 0
286 287 288  0
-289 286 0
289 -286 0
-290 289 287 0
290 -289 0
290 -287 0
-289 -287 0
-290 -288 0
291 292 293  0
-294 291 0
294 -291 0
-295 294 292 0
295 -294 0
295 -292 0
-294 -292 0
-295 -293 0
296 297 298  0
-299 296 0
299 -296 0
-300 299 297 0
300 -299 0
300 -297 0
-299 -297 0
-300 -298 0
301 302 303  0
-304 301 0
304 -301 0
-305 304 302 0
305 -304 0
305 -302 0
-304 -302 0
-305 -303 0
306 307 308  0
-309 306 0
309 -306 0
-310 309 307 0
310 -309 0
310 -307 0
-309 -307 0
-310 -308 0
311 312 313  0
-314 311 0
314 -311 0
-315 314 312 0
315 -314 0
315 -312 0
-314 -312 0
-315 -313 0
316 317 318  0
-319 316 0
319 -316 0
-320 319 317 0
320 -319 0
320 -317 0
-319 -317 0
-320 -318 0
321 322 323  0
-324 321 0
324 -321 0
-325 324 322 0
325 -324 0
325 -322 0
-324 -322 0
-325 -323 0
326 327 328  0
-329 326 0
329 -326 0
-330 329 327 0
330 -329 0
330 -327 0
-329 -327 0
-330 -328 0
331 332 333  0
-334 331 0
334 -331 0
-335 334 332 0
335 -334 0
335 -332 0
-334 -332 0
-335 -333 0
336 337 338  0
-339 336 0
339 -336 0
-340 339 337 0
340 -339 0
340 -337 0
-339 -337 0
-340 -338 0
341 342 343  0
-344 341 0
344 -341 0
-345 344 342 0
345 -344 0
345 -342 0
-344 -342 0
-345 -343 0
346 347 348  0
-349 346 0
349 -346 0
-350 349 347 0
350 -349 0
350 -347 0
-349 -347 0
-350 -348 0
351 352 353  0
-354 351 0
354 -351 0
-355 354 352 0
355 -354 0
355 -352 0
-354 -352 0
-355 -353 0
356 357 358  0
-359 356 0
359 -356 0
-360 359 357 0
360 -359 0
360 -357 0
-359 -357 0
-360 -358 0
361 362 363  0
-364 361 0
364 -361 0
-365 364 362 0
365 -364 0
365 -362 0
-364 -362 0
-365 -363 0
366 367 368  0
-369 366 0
369 -366 0
-370 369 367 0
370 -369 0
370 -367 0
-369 -367 0
-370 -368 0
371 372 373  0
-374 371 0
374 -371 0
-375 374 372 0
375 -374 0
375 -372 0
-374 -372 0
-375 -373 0
376 377 378  0
-379 376 0
379 -376 0
-380 379 377 0
380 -379 0
380 -377 0
-379 -377 0
-380 -378 0
381 382 383  0
-384 381 0
384 -381 0
-385 384 382 0
385 -384 0
385 -382 0
-384 -382 0
-385 -383 0
386 387 388  0
-389 386 0
389 -386 0
-390 389 387 0
390 -389 0
390 -387 0
-389 -387 0
-390 -388 0
391 392 393  0
-394 391 0
394 -391 0
-395 394 392 0
395 -394 0
395 -392 0
-394 -392 0
-395 -393 0
396 397 398  0
-399 396 0
399 -396 0
-400 399 397 0
400 -399 0
400 -397 0
-399 -397 0
-400 -398 0
401 402 403  0
-404 401 0
404 -401 0
-405 404 402 0
405 -404 0
405 -402 0
-404 -402 0
-405 -403 0
406 407 408  0
-409 406 0
409 -406 0
-410 409 407 0
410 -409 0
410 -407 0
-409 -407 0
-410 -408 0
411 412 413  0
-414 411 0
414 -411 0
-415 414 412 0
415 -414 0
415 -412 0
-414 -412 0
-415 -413 0
416 417 418  0
-419 416 0
419 -416 0
-420 419 417 0
420 -419 0
420 -417 0
-419 -417 0
-420 -418 0
421 422 423  0
-424 421 0
424 -421 0
-425 424 422 0
425 -424 0
425 -422 0
-424 -422 0
-425 -423 0
426 427 428  0
-429 426 0
429 -426 0
-430 429 427 0
430 -429 0
430 -427 0
-429 -427 0
-430 -428 0
431 432 433  0
-434 431 0
434 -431 0
-435 434 432 0
435 -434 0
435 -432 0
-434 -432 0
-435 -433 0
436 437 438  0
-439 436 0
439 -436 0
-440 439 437 0
440 -439 0
440 -437 0
-439 -437 0
-440 -438 0
441 442 443  0
-444 441 0
444 -441 0
-445 444 442 0
445 -444 0
445 -442 0
-444 -442 0
-445 -443 0
446 447 448  0
-449 446 0
449 -446 0
-450 449 447 0
450 -449 0
450 -447 0
-449 -447 0
-450 -448 0
451 452 453  0
-454 451 0
454 -451 0
-455 454 452 0
455 -454 0
455 -452 0
-454 -452 0
-455 -453 0
456 457 458  0
-459 456 0
459 -456 0
-460 459 457 0
460 -459 0
460 -457 0
-459 -457 0
-460 -458 0
461 462 463  0
-464 461 0
464 -461 0
-465 464 462 0
465 -464 0
465 -462 0
-464 -462 0
-465 -463 0
466 467 468  0
-469 466 0
469 -466 0
-470 469 467 0
470 -469 0
470 -467 0
-469 -467 0
-470 -468 0
471 472 473  0
-474 471 0
474 -471 0
-475 474 472 0
475 -474 0
475 -472 0
-474 -472 0
-475 -473 0
476 477 478  0
-479 476 0
479 -476 0
-480 479 477 0
480 -479 0
480 -477 0
-479 -477 0
-480 -478 0
481 482 483  0
-484 481 0
484 -481 0
-485 484 482 0
485 -484 0
485 -482 0
-484 -482 0
-485 -483 0
486 487 488  0
-489 486 0
489 -486 0
-490 489 487 0
490 -489 0
490 -487 0
-489 -487 0
-490 -488 0
491 492 493  0
-494 491 0
494 -491 0
-495 494 492 0
495 -494 0
495 -492 0
-494 -492 0
-495 -493 0
496 497 498  0
-499 496 0
499 -496 0
-500 499 497 0
500 -499 0
500 -497 0
-499 -497 0
-500 -498 0
501 502 503  0
-504 501 0
504 -501 0
-505 504 502 0
505 -504 0
505 -502 0
-504 -502 0
-505 -503 0
506 507 508  0
-509 506 0
509 -506 0
-510 509 507 0
510 -509 0
510 -507 0
-509 -507 0
-510 -508 0
511 512 513  0
-514 511 0
514 -511 0
-515 514 512 0
515 -514 0
515 -512 0
-514 -512 0
-515 -513 0
516 517 518  0
-519 516 0
519 -516 0
-520 519 517 0
520 -519 0
520 -517 0
-519 -517 0
-520 -518 0
521 522 523  0
-524 521 0
524 -521 0
-525 524 522 0
525 -524 0
525 -522 0
-524 -522 0
-525 -523 0
526 527 528  0
-529 526 0
529 -526 0
-530 529 527 0
530 -529 0
530 -527 0
-529 -527 0
-530 -528 0
531 532 533  0
-534 531 0
534 -531 0
-535 534 532 0
535 -534 0
535 -532 0
-534 -532 0
-535 -533 0
536 537 538  0
-539 536 0
539 -536 0
-540 539 537 0
540 -539 0
540 -537 0
-539 -537 0
-540 -538 0
541 542 543  0
-544 541 0
544 -541 0
-545 544 542 0
545 -544 0
545 -542 0
-544 -542 0
-545 -543 0
546 547 548  0
-549 546 0
549 -546 0
-550 549 547 0
550 -549 0
550 -547 0
-549 -547 0
-550 -548 0
551 552 553  0
-554 551 0
554 -551 0
-555 554 552 0
555 -554 0
555 -552 0
-554 -552 0
-555 -553 0
556 557 558  0
-559 556 0
559 -556 0
-560 559 557 0
560 -559 0
560 -557 0
-559 -557 0
-560 -558 0
561 562 563  0
-564 561 0
564 -561 0
-565 564 562 0
565 -564 0
565 -562 0
-564 -562 0
-565 -563 0
566 567 568  0
-569 566 0
569 -566 0
-570 569 567 0
570 -569 0
570 -567 0
-569 -567 0
-570 -568 0
571 572 573  0
-574 571 0
574 -571 0
-575 574 572 0
575 -574 0
575 -572 0
-574 -572 0
-575 -573 0
576 577 578  0
-579 576 0
579 -576 0
-580 579 577 0
580 -579 0
580 -577 0
-579 -577 0
-580 -578 0
581 582 583  0
-584 581 0
584 -581 0
-585 584 582 0
585 -584 0
585 -582 0
-584 -582 0
-585 -583 0
586 587 588  0
-589 586 0
589 -586 0
-590 589 587 0
590 -589 0
590 -587 0
-589 -587 0
-590 -588 0
591 592 593  0
-594 591 0
594 -591 0
-595 594 592 0
595 -594 0
595 -592 0
-594 -592 0
-595 -593 0
596 597 598  0
-599 596 0
599 -596 0
-600 599 597 0
600 -599 0
600 -597 0
-599 -597 0
-600 -598 0
601 602 603  0
-604 601 0
604 -601 0
-605 604 602 0
605 -604 0
605 -602 0
-604 -602 0
-605 -603 0
606 607 608  0
-609 606 0
609 -606 0
-610 609 607 0
610 -609 0
610 -607 0
-609 -607 0
-610 -608 0
611 612 613  0
-614 611 0
614 -611 0
-615 614 612 0
615 -614 0
615 -612 0
-614 -612 0
-615 -613 0
616 617 618  0
-619 616 0
619 -616 0
-620 619 617 0
620 -619 0
620 -617 0
-619 -617 0
-620 -618 0
621 622 623  0
-624 621 0
624 -621 0
-625 624 622 0
625 -624 0
625 -622 0
-624 -622 0
-625 -623 0
626 627 628  0
-629 626 0
629 -626 0
-630 629 627 0
630 -629 0
630 -627 0
-629 -627 0
-630 -628 0
631 632 633  0
-634 631 0
634 -631 0
-635 634 632 0
635 -634 0
635 -632 0
-634 -632 0
-635 -633 0
636 637 638  0
-639 636 0
639 -636 0
-640 639 637 0
640 -639 0
640 -637 0
-639 -637 0
-640 -638 0
641 642 643  0
-644 641 0
644 -641 0
-645 644 642 0
645 -644 0
645 -642 0
-644 -642 0
-645 -643 0
646 647 648  0
-649 646 0
649 -646 0
-650 649 647 0
650 -649 0
650 -647 0
-649 -647 0
-650 -648 0
651 652 653  0
-654 651 0
654 -651 0
-655 654 652 0
655 -654 0
655 -652 0
-654 -652 0
-655 -653 0
656 657 658  0
-659 656 0
659 -656 0
-660 659 657 0
660 -659 0
660 -657 0
-659 -657 0
-660 -658 0
661 662 663  0
-664 661 0
664 -661 0
-665 664 662 0
665 -664 0
665 -662 0
-664 -662 0
-665 -663 0
666 667 668  0
-669 666 0
669 -666 0
-670 669 667 0
670 -669 0
670 -667 0
-669 -667 0
-670 -668 0
671 672 673  0
-674 671 0
674 -671 0
-675 674 672 0
675 -674 0
675 -672 0
-674 -672 0
-675 -673 0
676 677 678  0
-679 676 0
679 -676 0
-680 679 677 0
680 -679 0
680 -677 0
-679 -677 0
-680 -678 0
681 682 683  0
-684 681 0
684 -681 0
-685 684 682 0
685 -684 0
685 -682 0
-684 -682 0
-685 -683 0
686 687 688  0
-689 686 0
689 -686 0
-690 689 687 0
690 -689 0
690 -687 0
-689 -687 0
-690 -688 0
691 692 693  0
-694 691 0
694 -691 0
-695 694 692 0
695 -694 0
695 -692 0
-694 -692 0
-695 -693 0
696 697 698  0
-699 696 0
699 -696 0
-700 699 697 0
700 -699 0
700 -697 0
-699 -697 0
-700 -698 0
701 702 703  0
-704 701 0
704 -701 0
-705 704 702 0
705 -704 0
705 -702 0
-704 -702 0
-705 -703 0
706 707 708  0
-709 706 0
709 -706 0
-710 709 707 0
710 -709 0
710 -707 0
-709 -707 0
-710 -708 0
711 712 713  0
-714 711 0
714 -711 0
-715 714 712 0
715 -714 0
715 -712 0
-714 -712 0
-715 -713 0
716 717 718  0
-719 716 0
719 -716 0
-720 719 717 0
720 -719 0
720 -717 0
-719 -717 0
-720 -718 0
721 722 723  0
-724 721 0
724 -721 0
-725 724 722 0
725 -724 0
725 -722 0
-724 -722 0
-725 -723 0
726 727 728  0
-729 726 0
729 -726 0
-730 729 727 0
730 -729 0
730 -727 0
-729 -727 0
-730 -728 0
731 732 733  0
-734 731 0
734 -731 0
-735 734 732 0
735 -734 0
735 -732 0
-734 -732 0
-735 -733 0
736 737 738  0
-739 736 0
739 -736 0
-740 739 737 0
740 -739 0
740 -737 0
-739 -737 0
-740 -738 0
741 742 743  0
-744 741 0
744 -741 0
-745 744 742 0
745 -744 0
745 -742 0
-744 -742 0
-745 -743 0
746 747 748  0
-749 746 0
749 -746 0
-750 749 747 0
750 -749 0
750 -747 0
-749 -747 0
-750 -748 0
751 752 753  0
-754 751 0
754 -751 0
-755 754 752 0
755 -754 0
755 -752 0
-754 -752 0
-755 -753 0
756 757 758  0
-759 756 0
759 -756 0
-760 759 757 0
760 -759 0
760 -757 0
-759 -757 0
-760 -758 0
761 762 763  0
-764 761 0
764 -761 0
-765 764 762 0
765 -764 0
765 -762 0
-764 -762 0
-765 -763 0
766 767 768  0
-769 766 0
769 -766 0
-770 769 767 0
770 -769 0
770 -767 0
-769 -767 0
-770 -768 0
771 772 773  0
-774 771 0
774 -771 0
-775 774 772 0
775 -774 0
775 -772 0
-774 -772 0
-775 -773 0
776 777 778  0
-779 776 0
779 -776 0
-780 779 777 0
780 -779 0
780 -777 0
-779 -777 0
-780 -778 0
781 782 783  0
-784 781 0
784 -781 0
-785 784 782 0
785 -784 0
785 -782 0
-784 -782 0
-785 -783 0
786 787 788  0
-789 786 0
789 -786 0
-790 789 787 0
790 -789 0
790 -787 0
-789 -787 0
-790 -788 0
791 792 793  0
-794 791 0
794 -791 0
-795 794 792 0
795 -794 0
795 -792 0
-794 -792 0
-795 -793 0
796 797 798  0
-799 796 0
799 -796 0
-800 799 797 0
800 -799 0
800 -797 0
-799 -797 0
-800 -798 0
801 802 803  0
-804 801 0
804 -801 0
-805 804 802 0
805 -804 0
805 -802 0
-804 -802 0
-805 -803 0
806 807 808  0
-809 806 0
809 -806 0
-810 809 807 0
810 -809 0
810 -807 0
-809 -807 0
-810 -808 0
811 812 813  0
-814 811 0
814 -811 0
-815 814 812 0
815 -814 0
815 -812 0
-814 -812 0
-815 -813 0
816 817 818  0
-819 816 0
819 -816 0
-820 819 817 0
820 -819 0
820 -817 0
-819 -817 0
-820 -818 0
821 822 823  0
-824 821 0
824 -821 0
-825 824 822 0
825 -824 0
825 -822 0
-824 -822 0
-825 -823 0
826 827 828  0
-829 826 0
829 -826 0
-830 829 827 0
830 -829 0
830 -827 0
-829 -827 0
-830 -828 0
831 832 833  0
-834 831 0
834 -831 0
-835 834 832 0
835 -834 0
835 -832 0
-834 -832 0
-835 -833 0
836 837 838  0
-839 836 0
839 -836 0
-840 839 837 0
840 -839 0
840 -837 0
-839 -837 0
-840 -838 0
841 842 843  0
-844 841 0
844 -841 0
-845 844 842 0
845 -844 0
845 -842 0
-844 -842 0
-845 -843 0
846 847 848  0
-849 846 0
849 -846 0
-850 849 847 0
850 -849 0
850 -847 0
-849 -847 0
-850 -848 0
851 852 853  0
-854 851 0
854 -851 0
-855 854 852 0
855 -854 0
855 -852 0
-854 -852 0
-855 -853 0
856 857 858  0
-859 856 0
859 -856 0
-860 859 857 0
860 -859 0
860 -857 0
-859 -857 0
-860 -858 0
861 862 863  0
-864 861 0
864 -861 0
-865 864 862 0
865 -864 0
865 -862 0
-864 -862 0
-865 -863 0
866 867 868  0
-869 866 0
869 -866 0
-870 869 867 0
870 -869 0
870 -867 0
-869 -867 0
-870 -868 0
871 872 873  0
-874 871 0
874 -871 0
-875 874 872 0
875 -874 0
875 -872 0
-874 -872 0
-875 -873 0
552 516 563 0
243 552 26 0
353 631 551 0
741 671 507 0
618 112 731 0
753 426 376 0
243 53 652 0
251 778 426 0
278 667 658 0
322 406 652 0
831 277 862 0
98 623 717 0
846 843 778 0
678 152 851 0
222 137 546 0
593 866 726 0
137 566 51 0
68 148 512 0
311 486 388 0
173 422 33 0
627 168 303 0
93 176 708 0
206 396 258 0
593 291 232 0
461 718 831 0
2 13 526 0
538 163 38 0
68 133 136 0
358 227 123 0
93 716 127 0
708 587 477 0
666 481 323 0
361 857 453 0
527 403 177 0
758 533 8 0
143 858 797 0
222 511 777 0
126 566 561 0
496 46 558 0
658 91 576 0
222 343 753 0
353 17 617 0
328 838 26 0
338 158 817 0
206 321 841 0
47 512 718 0
251 822 63 0
678 413 16 0
428 342 652 0
731 111 52 0
137 258 673 0
268 602 252 0
718 502 281 0
103 81 706 0
132 141 128 0
696 741 232 0
731 251 116 0
163 387 782 0
108 623 386 0
477 372 456 0
201 586 526 0
33 233 822 0
377 561 431 0
651 477 427 0
596 422 512 0
36 112 143 0
278 231 506 0
643 536 228 0
346 486 73 0
623 723 698 0
673 301 681 0
398 723 468 0
496 741 541 0
632 193 418 0
862 788 62 0
627 783 446 0
683 636 488 0
812 331 407 0
13 272 558 0
708 748 347 0
398 336 511 0
458 146 466 0
27 158 556 0
812 383 442 0
77 458 38 0
482 746 702 0
711 222 686 0
718 151 791 0
487 817 728 0
422 666 291 0
441 251 396 0
477 761 258 0
147 93 587 0
556 313 336 0
552 706 331 0
322 642 852 0
237 421 813 0
487 411 533 0
187 676 13 0
431 451 372 0
581 807 407 0
193 726 311 0
731 547 52 0
718 421 316 0
342 386 113 0
36 547 391 0
533 862 277 0
768 352 683 0
711 426 847 0
586 573 378 0
747 723 512 0
683 436 542 0
311 202 56 0
213 821 338 0
386 176 608 0
428 323 221 0
502 98 28 0
272 591 656 0
6 98 702 0
593 802 318 0
496 591 563 0
237 1 842 0
121 352 431 0
812 701 861 0
121 752 351 0
502 73 366 0
538 868 746 0
841 107 378 0
546 381 632 0
566 643 443 0
666 316 33 0
111 102 481 0
606 357 478 0
858 467 358 0
673 626 426 0
311 8 742 0
358 416 841 0
441 841 508 0
577 237 593 0
602 573 726 0
502 408 242 0
137 437 358 0
297 596 67 0
62 391 382 0
741 83 436 0
862 52 63 0
72 563 636 0
157 772 6 0
437 301 52 0
193 116 602 0
673 356 816 0
143 686 276 0
516 347 827 0
247 868 498 0
787 56 531 0
431 722 88 0
492 756 836 0
492 862 227 0
272 741 587 0
372 831 146 0
563 818 628 0
392 186 388 0
651 761 348 0
513 722 31 0
737 302 236 0
407 493 97 0
196 546 477 0
62 867 266 0
527 803 452 0
867 88 468 0
841 328 668 0
206 83 61 0
586 258 63 0
33 126 286 0
867 813 137 0
358 13 247 0
358 97 547 0
147 751 212 0
36 682 647 0
816 566 432 0
157 426 241 0
827 483 191 0
821 547 638 0
487 781 347 0
798 267 8 0
437 707 202 0
237 242 33 0
147 857 606 0
477 436 198 0
708 687 578 0
747 497 441 0
118 761 491 0
366 728 63 0
586 208 447 0
563 46 177 0
342 766 216 0
851 847 56 0
247 171 353 0
163 602 378 0
816 87 331 0
461 22 606 0
708 838 527 0
328 393 302 0
331 547 403 0
62 563 351 0
181 177 823 0
338 293 802 0
492 516 466 0
47 793 77 0
13 406 516 0
441 578 833 0
213 23 133 0
507 468 41 0
58 538 802 0
846 731 526 0
27 426 557 0
42 8 307 0
353 517 348 0
602 851 632 0
401 571 203 0
566 172 377 0
168 287 276 0
88 206 496 0
586 731 342 0
451 828 456 0
846 742 413 0
541 863 778 0
711 71 732 0
386 816 133 0
831 603 753 0
272 328 342 0
487 313 652 0
606 317 737 0
88 458 618 0
407 127 733 0
467 688 537 0
812 691 717 0
572 213 238 0
93 727 686 0
297 771 357 0
372 761 511 0
673 868 536 0
651 356 436 0
386 137 627 0
168 716 243 0
467 536 521 0
596 18 247 0
178 801 378 0
812 151 168 0
678 552 857 0
753 146 743 0
322 216 518 0
718 236 391 0
178 566 463 0
533 403 253 0
581 51 203 0
196 837 106 0
338 313 163 0
556 1 202 0
447 262 633 0
798 287 31 0
586 496 597 0
386 792 336 0
33 673 728 0
173 292 253 0
118 582 87 0
377 8 513 0
816 107 418 0
17 686 333 0
523 368 736 0
546 38 278 0
6 392 647 0
862 31 381 0
178 321 367 0
243 382 741 0
467 387 183 0
193 732 582 0
111 471 746 0
773 618 38 0
593 96 248 0
836 491 283 0
458 636 548 0
651 623 706 0
687 816 222 0
58 3 218 0
437 808 653 0
596 502 458 0
798 36 438 0
487 212 166 0
316 858 243 0
441 182 756 0
121 317 136 0
168 737 608 0
272 413 818 0
477 312 581 0
2 21 628 0
428 193 511 0
492 516 708 0
257 758 622 0
487 18 491 0
762 97 717 0
401 716 742 0
611 298 822 0
623 321 21 0
2 163 286 0
411 772 322 0
411 207 447 0
51 846 401 0
132 21 563 0
711 307 57 0
218 818 136 0
278 431 846 0
283 382 533 0
777 472 551 0
297 567 318 0
747 37 48 0
658 148 157 0
36 431 803 0
482 93 446 0
507 346 201 0
103 497 121 0
496 758 66 0
596 722 407 0
132 326 731 0
492 337 287 0
858 678 203 0
51 301 407 0
846 26 588 0
762 196 608 0
586 622 793 0
187 411 417 0
496 398 643 0
151 692 301 0
867 272 67 0
342 712 53 0
546 643 481 0
441 557 271 0
441 767 708 0
747 741 428 0
458 301 707 0
193 56 251 0
307 687 383 0
88 712 827 0
831 392 221 0
187 851 533 0
147 873 353 0
846 542 823 0
758 253 518 0
666 601 526 0
228 368 871 0
68 182 43 0
623 73 343 0
422 196 193 0
658 73 271 0
792 826 157 0
636 266 592 0
437 657 766 0
51 516 531 0
93 76 72 0
88 726 361 0
703 163 787 0
437 546 288 0
618 723 71 0
401 7 72 0
118 161 61 0
651 147 8 0
741 592 587 0
643 33 122 0
206 743 26 0
773 311 36 0
361 153 857 0
546 636 401 0
643 153 206 0
741 731 683 0
206 777 368 0
428 151 251 0
392 612 707 0
322 262 457 0
762 108 127 0
566 753 458 0
33 553 637 0
272 188 278 0
147 552 258 0
538 578 771 0
206 546 793 0
458 483 398 0
6 426 352 0
311 508 276 0
472 421 528 0
611 71 266 0
307 358 457 0
81 797 516 0
593 523 101 0
708 302 851 0
181 448 526 0
687 263 836 0
787 267 197 0
173 282 817 0
846 533 601 0
213 317 487 0
407 666 413 0
611 221 556 0
2 352 777 0
68 71 598 0
636 457 853 0
836 77 668 0
566 197 317 0
437 58 23 0
782 786 127 0
523 197 478 0
541 126 857 0
213 702 482 0
392 172 626 0
187 73 786 0
47 697 137 0
577 657 226 0
708 766 848 0
27 182 852 0
718 252 413 0
218 488 526 0
816 578 707 0
812 292 723 0
291 438 333 0
58 361 398 0
151 242 751 0
361 91 211 0
431 151 417 0
803 238 73 0
683 367 106 0
58 47 423 0
288 457 761 0
2 131 147 0
816 461 31 0
251 833 411 0
213 106 736 0
862 677 52 0
353 341 807 0
23 808 217 0
358 41 737 0
201 112 326 0
696 542 101 0
606 848 633 0
81 111 641 0
358 546 486 0
577 841 11 0
758 98 668 0
111 378 627 0
261 241 233 0
353 197 716 0
798 197 651 0
58 237 741 0
243 512 823 0
658 62 518 0
47 777 378 0
812 733 807 0
68 728 352 0
233 292 647 0
646 16 3 0
627 548 313 0
477 361 418 0
873 237 213 0
58 166 597 0
411 713 48 0
731 693 297 0
233 46 21 0
322 387 298 0
237 177 711 0
218 658 126 0
721 536 583 0
283 396 576 0
88 508 108 0
437 377 616 0
482 793 318 0
222 856 231 0
243 767 782 0
687 72 656 0
623 741 853 0
33 297 277 0
193 756 198 0
782 306 301 0
196 546 302 0
673 111 322 0
62 67 222 0
261 138 382 0
143 458 852 0
151 758 107 0
507 188 708 0
836 391 367 0
261 426 782 0
586 53 692 0
93 831 161 0
552 197 523 0
643 42 268 0
747 228 243 0
858 503 642 0
441 238 52 0
213 8 257 0
233 457 757 0
47 797 201 0
658 312 23 0
683 407 336 0
157 573 392 0
827 488 506 0
342 738 623 0
851 551 3 0
747 658 573 0
753 262 578 0
798 618 847 0
47 683 563 0
377 787 587 0
447 98 453 0
513 117 208 0
451 467 158 0
467 772 436 0
417 131 863 0
566 776 163 0
606 182 803 0
187 502 751 0
447 536 522 0
777 16 578 0
461 8 793 0
851 73 177 0
353 363 417 0
62 603 43 0
867 492 872 0
33 776 367 0
243 827 433 0
68 408 688 0
502 163 561 0
243 622 38 0
552 793 577 0
187 491 227 0
178 473 548 0
331 611 156 0
792 663 746 0
816 872 131 0
527 682 692 0
507 7 201 0
513 376 217 0
386 551 591 0
851 391 216 0
606 158 587 0
58 238 651 0
247 283 776 0
62 411 536 0
678 48 232 0
782 98 286 0
297 778 322 0
753 262 613 0
437 741 383 0
458 441 213 0
581 11 658 0
666 447 701 0
538 7 127 0
17 762 513 0
398 73 488 0
17 67 82 0
768 546 687 0
302 476 526 0
401 187 808 0
411 713 771 0
581 291 832 0
527 732 316 0
773 96 73 0
472 256 786 0
541 96 362 0
836 196 733 0
841 31 681 0
272 542 586 0
218 682 171 0
103 427 358 0
206 787 747 0
502 591 763 0
17 617 636 0
831 32 273 0
222 372 846 0
666 72 417 0
316 627 521 0
268 33 616 0
316 516 568 0
841 522 818 0
581 162 777 0
721 451 703 0
178 28 172 0
13 436 871 0
386 318 47 0
741 16 816 0
222 408 282 0
782 126 758 0
643 816 271 0
302 282 768 0
606 168 193 0
372 58 673 0
711 777 716 0
487 507 257 0
36 21 663 0
322 846 867 0
623 481 113 0
13 372 8 0
386 723 678 0
143 172 221 0
346 143 558 0
737 3 208 0
523 826 433 0
36 326 653 0
487 47 442 0
513 468 588 0
338 818 782 0
533 498 738 0
718 571 163 0
646 486 313 0
458 357 782 0
523 262 232 0
222 172 126 0
218 541 532 0
428 257 47 0
507 698 476 0
737 816 753 0
353 397 236 0
711 458 401 0
251 616 308 0
307 621 177 0
831 572 747 0
386 612 648 0
487 121 481 0
291 317 751 0
173 12 193 0
386 503 802 0
502 647 873 0
311 271 191 0
623 682 402 0
288 577 866 0
103 161 448 0
666 717 498 0
428 121 687 0
816 7 82 0
316 702 248 0
178 532 548 0
151 648 501 0
691 292 558 0
477 873 18 0
803 717 87 0
773 403 776 0
623 838 323 0
477 362 53 0
157 746 103 0
72 577 752 0
873 562 573 0
126 351 637 0
586 267 773 0
496 256 668 0
62 707 223 0
377 178 572 0
753 567 76 0
278 87 333 0
527 47 627 0
593 138 551 0
283 612 348 0
447 721 417 0
482 871 441 0
507 532 836 0
62 768 577 0
93 711 641 0
731 263 201 0
492 807 338 0
606 818 76 0
257 582 557 0
187 503 563 0
803 658 376 0
441 118 603 0
556 217 448 0
487 183 602 0
533 743 451 0
168 637 373 0
137 186 62 0
181 502 636 0
6 206 143 0
658 511 43 0
747 457 481 0
411 533 348 0
651 487 528 0
661 596 351 0
58 241 161 0
111 817 713 0
33 467 22 0
132 431 571 0
516 237 728 0
593 398 417 0
611 478 183 0
272 177 17 0
